RT is False
Default write of storage_offers_DA.csv just to have a file (but constraint should be inactive)
Reading model...
...model read.
creating competitive generators file...
...competitive generators recorded.
Loading data...
.. day-ahead data read.
Compiling instance...
...instance created.
Creating Offer Mitigation (model will solve as dispatch if TRUE)...
NOTE: storage offers will not be mitigated
...storage offer mitigation file created
Converting model to MPEC...
...converted
NOTE: initial MIP solve with only storage competitive to get feasible solution
Solving...

Welcome to IBM(R) ILOG(R) CPLEX(R) Interactive Optimizer 12.9.0.0
  with Simplex, Mixed Integer & Barrier Optimizers
5725-A06 5725-A29 5724-Y48 5724-Y49 5724-Y54 5724-Y55 5655-Y21
Copyright IBM Corp. 1988, 2019.  All Rights Reserved.

Type 'help' for a list of available commands.
Type 'help' followed by a command name for more
information on commands.

CPLEX> Logfile 'cplex.log' closed.
Logfile 'C:\Users\llavin\Desktop\test919\logs\tmpbnbx_m5n.cplex.log' open.
CPLEX> New value for parallel optimization mode: -1
CPLEX> New value for mixed integer optimality gap tolerance: 0.01
CPLEX> New value for integrality tolerance: 1e-09
CPLEX> New value for feasibility tolerance: 0.01
CPLEX> New value for deterministic time limit in ticks: 75000
CPLEX> Problem 'C:\Users\llavin\Desktop\test919\logs\tmpmufg35qo.pyomo.lp' read.
Read time = 0.23 sec. (14.73 ticks)
CPLEX> Problem name         : C:\Users\llavin\Desktop\test919\logs\tmpmufg35qo.pyomo.lp
Objective sense      : Maximize
Variables            :   53805  [Nneg: 1,  Box: 22000,  Free: 4464,
                                 Binary: 27340]
Objective nonzeros   :    9030
Linear constraints   :  123205  [Less: 41346,  Greater: 59096,  Equal: 22763]
  Nonzeros           :  291754
  RHS nonzeros       :   67492

Variables            : Min LB: -5000.000        Max UB: 1000000.       
Objective nonzeros   : Min   : 1.300000         Max   : 2500.000       
Linear constraints   :
  Nonzeros           : Min   : 0.8500000        Max   : 1000000.       
  RHS nonzeros       : Min   : 1.000000         Max   : 1000000.       
CPLEX> CPXPARAM_Parallel                                -1
CPXPARAM_Simplex_Tolerances_Feasibility          0.01
CPXPARAM_DetTimeLimit                            75000
CPXPARAM_MIP_Tolerances_MIPGap                   0.01
CPXPARAM_MIP_Tolerances_Integrality              1.0000000000000001e-09
Tried aggregator 3 times.
MIP Presolve eliminated 88627 rows and 18951 columns.
MIP Presolve added 3379 rows and 0 columns.
MIP Presolve modified 24890 coefficients.
Aggregator did 12984 substitutions.
Reduced MIP has 24973 rows, 21314 columns, and 71232 nonzeros.
Reduced MIP has 8424 binaries, 0 generals, 0 SOSs, and 0 indicators.
Presolve time = 0.28 sec. (172.43 ticks)
Probing fixed 362 vars, tightened 2822 bounds.
Probing time = 1.20 sec. (873.34 ticks)
Tried aggregator 2 times.
MIP Presolve eliminated 821 rows and 726 columns.
MIP Presolve modified 2214 coefficients.
Aggregator did 42 substitutions.
Reduced MIP has 24110 rows, 20546 columns, and 68728 nonzeros.
Reduced MIP has 8062 binaries, 0 generals, 0 SOSs, and 0 indicators.
Presolve time = 0.11 sec. (72.40 ticks)
Probing time = 0.05 sec. (15.35 ticks)
Clique table members: 6328.
MIP emphasis: balance optimality and feasibility.
MIP search method: dynamic search.
Parallel mode: opportunistic, using up to 32 threads.
Root relaxation solution time = 0.41 sec. (502.42 ticks)

        Nodes                                         Cuts/
   Node  Left     Objective  IInf  Best Integer    Best Bound    ItCnt     Gap

      0     0     2643.0310   660                   2643.0310     6101         
      0     0     2643.0310     6                    Fract: 2     6103         
      0     0     2643.0310     5                    Cuts: 14     6107         
*     0+    0                         2482.8550     2643.0310             6.45%

Repeating presolve.
Tried aggregator 3 times.
MIP Presolve eliminated 10275 rows and 7638 columns.
MIP Presolve modified 16115 coefficients.
Aggregator did 107 substitutions.
Reduced MIP has 13728 rows, 12799 columns, and 40733 nonzeros.
Reduced MIP has 4715 binaries, 0 generals, 0 SOSs, and 0 indicators.
Presolve time = 0.11 sec. (67.15 ticks)
Probing fixed 661 vars, tightened 26195 bounds.
Probing time = 0.16 sec. (69.05 ticks)
Cover probing fixed 3 vars, tightened 1853 bounds.
Tried aggregator 3 times.
MIP Presolve eliminated 6513 rows and 6361 columns.
MIP Presolve modified 2328 coefficients.
Aggregator did 78 substitutions.
Reduced MIP has 7137 rows, 6360 columns, and 22798 nonzeros.
Reduced MIP has 2308 binaries, 0 generals, 0 SOSs, and 0 indicators.
Presolve time = 0.05 sec. (27.08 ticks)
Probing fixed 9 vars, tightened 3005 bounds.
Probing time = 0.05 sec. (13.87 ticks)
Tried aggregator 3 times.
MIP Presolve eliminated 50 rows and 50 columns.
MIP Presolve modified 1207 coefficients.
Aggregator did 6 substitutions.
Reduced MIP has 7081 rows, 6304 columns, and 22599 nonzeros.
Reduced MIP has 2290 binaries, 0 generals, 0 SOSs, and 0 indicators.
Presolve time = 0.03 sec. (24.54 ticks)
Represolve time = 0.53 sec. (354.76 ticks)
Probing fixed 10 vars, tightened 2182 bounds.
Probing time = 0.03 sec. (8.28 ticks)
Clique table members: 2794.
MIP emphasis: balance optimality and feasibility.
MIP search method: dynamic search.
Parallel mode: opportunistic, using up to 32 threads.
Root relaxation solution time = 0.13 sec. (128.83 ticks)

        Nodes                                         Cuts/
   Node  Left     Objective  IInf  Best Integer    Best Bound    ItCnt     Gap

*     0+    0                         2482.8550     2643.0310             6.45%
      0     0     2643.0310    18     2482.8550     2643.0310     8048    6.45%
      0     0     2642.0711     4     2482.8550      Cuts: 10     8055    6.41%
      0     0     2642.0711     2     2482.8550       Cuts: 9     8066    6.41%
      0     0     2636.7161     7     2482.8550       Cuts: 5     8074    6.20%
      0     0     2636.1305     7     2482.8550       Cuts: 4     8076    6.17%
      0     0     2636.1305     6     2482.8550    MIRcuts: 1     8077    6.17%
*     0+    0                         2528.1691     2636.1305             4.27%
      0     6    infeasible           2528.1691   Impl Bds: 2     8103    3.31%
Elapsed time = 6.31 sec. (4061.06 ticks, tree = 0.02 MB, solutions = 1)

Cover cuts applied:  1
Implied bound cuts applied:  12
Flow cuts applied:  4
Mixed integer rounding cuts applied:  3
Lift and project cuts applied:  1
Gomory fractional cuts applied:  11

Root node processing (before b&c):
  Real time             =    5.94 sec. (4061.36 ticks)
Parallel b&c, 32 threads:
  Real time             =    0.75 sec. (126.68 ticks)
  Sync time (average)   =    0.32 sec.
  Wait time (average)   =    0.00 sec.
                          ------------
Total (root+branch&cut) =    6.69 sec. (4188.03 ticks)

Solution pool: 2 solutions saved.

MIP - Integer optimal, tolerance (0.01/1e-06):  Objective =  2.5380630648e+03
Current MIP best bound =  2.5626637990e+03 (gap = 24.6007, 0.97%)
Solution time =    6.72 sec.  Iterations = 8696  Nodes = 171 (8)
Deterministic time = 4188.19 ticks  (623.33 ticks/sec)

CPLEX> Incumbent solution written to file 'C:\Users\llavin\Desktop\test919\logs\tmpixxgb2_b.cplex.sol'.
CPLEX> NOTE: no warmstart specified for MIP iteration, default behavior is true
NOTE: resolving with all competitive generators using storage-only solution to warmstart
Solving...

Welcome to IBM(R) ILOG(R) CPLEX(R) Interactive Optimizer 12.9.0.0
  with Simplex, Mixed Integer & Barrier Optimizers
5725-A06 5725-A29 5724-Y48 5724-Y49 5724-Y54 5724-Y55 5655-Y21
Copyright IBM Corp. 1988, 2019.  All Rights Reserved.

Type 'help' for a list of available commands.
Type 'help' followed by a command name for more
information on commands.

CPLEX> Logfile 'cplex.log' closed.
Logfile 'C:\Users\llavin\Desktop\test919\logs\tmpfstgrchs.cplex.log' open.
CPLEX> New value for parallel optimization mode: -1
CPLEX> New value for mixed integer optimality gap tolerance: 0.01
CPLEX> New value for integrality tolerance: 1e-09
CPLEX> New value for feasibility tolerance: 0.01
CPLEX> New value for deterministic time limit in ticks: 75000
CPLEX> Problem 'C:\Users\llavin\Desktop\test919\logs\tmpwbmlasvi.pyomo.lp' read.
Read time = 0.23 sec. (14.75 ticks)
CPLEX> MIP start file 'C:\Users\llavin\Desktop\test919\logs\tmp80ceie47.cplex.mst' read.
CPLEX> Problem name         : C:\Users\llavin\Desktop\test919\logs\tmpwbmlasvi.pyomo.lp
Objective sense      : Maximize
Variables            :   54525  [Nneg: 1,  Box: 22720,  Free: 4464,
                                 Binary: 27340]
Objective nonzeros   :    9726
Linear constraints   :  123205  [Less: 41346,  Greater: 59096,  Equal: 22763]
  Nonzeros           :  291754
  RHS nonzeros       :   67492

Variables            : Min LB: -5000.000        Max UB: 1000000.       
Objective nonzeros   : Min   : 1.300000         Max   : 2500.000       
Linear constraints   :
  Nonzeros           : Min   : 0.8500000        Max   : 1000000.       
  RHS nonzeros       : Min   : 1.000000         Max   : 1000000.       
CPLEX> CPXPARAM_Parallel                                -1
CPXPARAM_Simplex_Tolerances_Feasibility          0.01
CPXPARAM_DetTimeLimit                            75000
CPXPARAM_MIP_Tolerances_MIPGap                   0.01
CPXPARAM_MIP_Tolerances_Integrality              1.0000000000000001e-09
Warning:  No solution found from 1 MIP starts.
Retaining values of one MIP start for possible repair.
Tried aggregator 3 times.
MIP Presolve eliminated 88627 rows and 19671 columns.
MIP Presolve added 3379 rows and 0 columns.
MIP Presolve modified 24890 coefficients.
Aggregator did 12984 substitutions.
Reduced MIP has 24973 rows, 21314 columns, and 71232 nonzeros.
Reduced MIP has 8424 binaries, 0 generals, 0 SOSs, and 0 indicators.
Presolve time = 0.28 sec. (172.78 ticks)
Probing fixed 362 vars, tightened 2822 bounds.
Probing time = 1.19 sec. (873.34 ticks)
Tried aggregator 2 times.
MIP Presolve eliminated 821 rows and 726 columns.
MIP Presolve modified 2214 coefficients.
Aggregator did 42 substitutions.
Reduced MIP has 24110 rows, 20546 columns, and 68728 nonzeros.
Reduced MIP has 8062 binaries, 0 generals, 0 SOSs, and 0 indicators.
Presolve time = 0.11 sec. (72.41 ticks)
Probing time = 0.05 sec. (15.35 ticks)
Clique table members: 6328.
MIP emphasis: balance optimality and feasibility.
MIP search method: dynamic search.
Parallel mode: opportunistic, using up to 32 threads.
Root relaxation solution time = 0.36 sec. (272.42 ticks)

        Nodes                                         Cuts/
   Node  Left     Objective  IInf  Best Integer    Best Bound    ItCnt     Gap

      0     0    95363.8130  1720                  95363.8130     5931         
      0     0    92867.9960   648                   Cuts: 597     6239         
      0     0    92575.9890   553                   Cuts: 198     6355         
      0     0    92442.6797   531                   Cuts: 128     6431         
      0     0    92405.2100   497                    Cuts: 86     6474         
      0     0    91404.3929   464                    Cuts: 79     6529         
      0     0    91353.0065   453                    Cuts: 57     6562         
      0     0    91176.2000   433                    Cuts: 65     6596         
      0     0    91144.7596   425                    Cuts: 51     6620         
      0     0    90472.9674   416                    Cuts: 52     6646         
      0     0    90301.8886   415                    Cuts: 44     6651         
      0     0    90301.8886   416                    Cuts: 38     6652         
      0     0    90234.9189   410                    Cuts: 41     6658         
      0     0    90234.9189   410                    Cuts: 37     6658         
Repair heuristic found nothing.
      0     2    90234.9189   410                     Cuts: 5     6658         
Elapsed time = 12.28 sec. (7028.06 ticks, tree = 0.02 MB, solutions = 0)
    337   104    84212.8500   378                  89642.2169     8053         
    846   120    76202.4183   346                  89642.2169     8150         
   1440   363    77182.6994   370                  89642.2169    11576         
   2184  1031    81032.7919   356                  89642.2169    24435         
   2966  1040    72387.9102   342                  89642.2169    24780         
   3661  1736    71164.4474   354                  89642.2169    44323         
   4312  2435    32887.4819   310                  89642.2169    52860         
   5057  1982    39249.4051   295                  89642.2169    47014         
   5814  2553    33078.0613   300                  89642.2169    54209         
*  9732+ 5714                        30360.7683    89642.2169           195.26%
Elapsed time = 29.66 sec. (10065.87 ticks, tree = 43.75 MB, solutions = 1)
  11818  7198        cutoff          30360.7683    72356.1216    77454  138.32%
  13309   492    43431.8264    60    30360.7683    71936.9144    82681  136.94%
  15104  1930    39353.2243    84    30360.7683    71549.1944   101498  135.66%
  17622  2995    49051.7479    71    34926.7930    69012.5755   120115   97.59%
  20010  4244    39622.7668    53    40218.3968    66448.4991   140924   65.22%
  22404  4867    50209.1198   100    40218.3968    61560.7948   164225   53.07%
  24887  6494    42399.4026    11    40531.9416    60296.8268   190783   48.76%
* 25763  7394      integral     0    41270.8857    60296.8268   202891   46.10%
  27107  8091    56313.7783    69    41270.8857    59492.5370   218756   44.15%
* 27941  9250      integral     0    42192.0115    58850.0460   233723   39.48%
Elapsed time = 79.97 sec. (23576.67 ticks, tree = 67.18 MB, solutions = 7)
* 29277  9038      integral     0    42281.8334    58650.5585   238988   38.71%
  30392  9894    46362.5098    34    42281.8334    58427.4470   251419   38.19%
  32953 10149    48910.7747    81    42281.8334    57400.8589   255634   35.76%
  35341 13087    46517.3923    71    42281.8334    56924.5217   291238   34.63%
  37943 14104    46993.7278    53    42281.8334    56586.0452   303908   33.83%
  40684 15502    46062.9291    60    43988.0113    56449.7802   321403   28.33%
  43296 15972    47721.5228    53    43988.0113    56092.9732   366813   27.52%
  45830 16834    48951.0081    37    43988.0113    55814.5258   378087   26.89%
  48398 18565    48692.6609    34    43988.0113    55708.2321   402376   26.64%
  51069 19700    45814.8242    49    44041.7609    55513.3396   421847   26.05%
  53697 20338    50524.5649    54    44041.7609    55231.5906   432365   25.41%
Elapsed time = 133.08 sec. (33117.45 ticks, tree = 156.66 MB, solutions = 10)
  56308 22250    48122.8607    56    44041.7609    55057.8469   462064   25.01%
  58847 24784    46816.1830    71    44041.7609    54737.1614   500594   24.28%
  61645 26009    50195.5558    69    44041.7609    54637.7022   519603   24.06%
  64347 26704    48284.5181    63    44041.7609    54589.8911   531907   23.95%
  65729 28489        cutoff          44041.7609    54373.3377   559641   23.46%
  65861 30692    50642.3339    82    44041.7609    54348.2134   592676   23.40%
  67044 30930    44168.6528    44    44041.7609    54348.2134   596423   23.40%
  69472 30952        cutoff          44041.7609    54299.1210   596979   23.29%
  72135 32181        cutoff          44041.7609    53960.2449   617254   22.52%
  74917 35466    48509.4281    51    44041.7609    53919.8043   667225   22.43%
Elapsed time = 175.80 sec. (42661.97 ticks, tree = 289.54 MB, solutions = 10)
  77776 35381    45358.8127    35    44041.7609    53708.9988   665641   21.95%
  80563 39543    46093.7685    46    44041.7609    53481.3010   727087   21.43%
  83262 40218    46598.7270    45    44041.7609    53388.0350   737770   21.22%
  85790 40442    44165.0142    30    44041.7609    53255.0466   741012   20.92%
  88615 42539    46783.6169    39    44041.7609    53129.4224   778554   20.63%
  91501 43928    46097.2916    50    44041.7609    52997.9604   798628   20.34%
  94371 45805    48627.6907    54    44041.7609    52939.9266   828154   20.20%
  97142 47987    48907.0819    61    44595.6197    52829.9520   861232   18.46%
  99614 45812    51456.2558    34    44595.6197    52767.0178   899280   18.32%
 101868 45034    46245.7917    44    44595.6197    52767.0178   884818   18.32%
Elapsed time = 225.92 sec. (52202.83 ticks, tree = 361.79 MB, solutions = 11)
 103989 46156        cutoff          44595.6197    52767.0178   907284   18.32%
 106025 46308    50187.9566    50    44595.6197    52767.0178   909401   18.32%
 107917 46546        cutoff          44595.6197    52767.0178   912798   18.32%
 109421 48125    51026.6422    45    44595.6197    52767.0178   946134   18.32%
 110684 47444    45648.7808    26    44595.6197    52767.0178   930224   18.32%
 111671 48244    51864.6221    64    44595.6197    52767.0178   947166   18.32%
 112487 47078    49117.1164    39    44595.6197    52767.0178   923310   18.32%
 113034 48002    45366.5974    15    44595.6197    52767.0178   940509   18.32%
 113415 48038    52050.8710    30    44595.6197    52767.0178   941021   18.32%
 113757 47492        cutoff          44595.6197    52767.0178   931905   18.32%
Elapsed time = 250.48 sec. (61747.91 ticks, tree = 382.95 MB, solutions = 11)
 114023 48095    45648.4108    26    44595.6197    52767.0178   941805   18.32%
 114288 48134    49055.3882    74    44595.6197    52767.0178   942340   18.32%
 114546 48508        cutoff          44595.6197    52767.0178   951656   18.32%
 114746 48505    52015.0499    36    44595.6197    52767.0178   952416   18.32%
 114888 47837    45319.2348    10    44595.6197    52767.0178   936399   18.32%
 114989 48557        cutoff          44595.6197    52767.0178   954304   18.32%
 115113 48557    51918.1758    40    44595.6197    52767.0178   956070   18.32%
 115245 48551    51807.1437    56    44595.6197    52767.0178   957617   18.32%
 115336 47677    infeasible          44595.6197    52767.0178   937963   18.32%
 115350 48288    infeasible          44595.6197    52767.0178   949047   18.32%
Elapsed time = 259.03 sec. (71555.08 ticks, tree = 390.61 MB, solutions = 11)
 115360 48304        cutoff          44595.6197    52767.0178   949132   18.32%
 115364 48328    infeasible          44595.6197    52767.0178   949173   18.32%

Clique cuts applied:  1
Cover cuts applied:  39
Implied bound cuts applied:  56
Flow cuts applied:  288
Mixed integer rounding cuts applied:  40
Gomory fractional cuts applied:  117

Root node processing (before b&c):
  Real time             =   10.25 sec. (6981.01 ticks)
Parallel b&c, 32 threads:
  Real time             =  249.41 sec. (68468.15 ticks)
  Sync time (average)   =    1.36 sec.
  Wait time (average)   =    0.25 sec.
                          ------------
Total (root+branch&cut) =  259.66 sec. (75449.15 ticks)

Solution pool: 11 solutions saved.

MIP - Deterministic time limit exceeded, integer feasible:  Objective =  4.4595619654e+04
Current MIP best bound =  5.2767017750e+04 (gap = 8171.4, 18.32%)
Solution time =  259.67 sec.  Iterations = 1069453  Nodes = 115368 (55514)
Deterministic time = 75449.31 ticks  (290.56 ticks/sec)

CPLEX> Incumbent solution written to file 'C:\Users\llavin\Desktop\test919\logs\tmp0xwp7m1h.cplex.sol'.
CPLEX> Exporting results... 
